# Objective value = 3.0478473036225586e+02
x[0] 1
x[1] 1
x[2] 0
x[3] 1
x[4] 0
x[5] 1
x[6] 1
x[7] 1
x[8] 0
x[9] 0
x[10] 0
x[11] 1
x[12] 1
x[13] 0
x[14] 1
x[15] 0
x[16] 0
x[17] 1
x[18] 1
x[19] 0
x[20] 1
x[21] 0
x[22] 0
x[23] 0
x[24] 0
x[25] 1
x[26] 1
x[27] 0
x[28] 0
x[29] 1
x[30] 0
x[31] 1
x[32] 0
x[33] 1
x[34] 1
x[35] 1
x[36] 0
x[37] 1
x[38] 0
x[39] 0
x[40] 1
x[41] 1
x[42] 0
x[43] 0
x[44] 0
x[45] 1
x[46] 1
x[47] 1
x[48] 0
x[49] 1
x[50] 0
x[51] 0
x[52] 1
x[53] 1
x[54] 0
x[55] 1
x[56] 0
x[57] 1
x[58] 0
x[59] 0
x[60] 1
x[61] 0
x[62] 1
x[63] 1
x[64] 0
x[65] 0
x[66] 0
x[67] 1
x[68] 1
x[69] 0
x[70] 1
x[71] 1
x[72] 0
x[73] 0
x[74] 0
x[75] 0
x[76] 0
x[77] 1
x[78] 0
x[79] 0
x[80] 1
x[81] 1
x[82] 0
x[83] 0
x[84] 1
x[85] 0
x[86] 0
x[87] 0
x[88] 1
x[89] 1
x[90] 0
x[91] 1
x[92] 0
x[93] 0
x[94] 1
x[95] 1
x[96] 0
x[97] 1
x[98] 1
x[99] 1
x[100] 0
x[101] 0
x[102] 1
x[103] 1
x[104] 1
x[105] 0
x[106] 0
x[107] 1
x[108] 1
x[109] 0
x[110] 0
x[111] 0
x[112] 0
x[113] 0
x[114] 1
x[115] 1
x[116] 0
x[117] 1
x[118] 1
x[119] 0
x[120] 1
x[121] 0
x[122] 0
x[123] 1
x[124] 1
x[125] 1
x[126] 0
x[127] 1
x[128] 1
x[129] 1
x[130] 1
x[131] 1
x[132] 0
x[133] 1
x[134] 0
x[135] 0
x[136] 1
x[137] 0
x[138] 0
x[139] 0
x[140] 0
x[141] 0
x[142] 1
x[143] 0
x[144] 1
x[145] 1
x[146] 1
x[147] 0
x[148] 1
x[149] 1
x[150] 1
x[151] 0
x[152] 1
x[153] 0
x[154] 0
x[155] 0
x[156] 1
x[157] 1
x[158] 0
x[159] 1
x[160] 1
x[161] 0
x[162] 1
x[163] 0
x[164] 0
x[165] 1
x[166] 0
x[167] 1
x[168] 0
x[169] 1
x[170] 1
x[171] 0
x[172] 1
x[173] 1
x[174] 0
x[175] 0
x[176] 1
x[177] 0
x[178] 0
x[179] 0
x[180] 1
x[181] 0
x[182] 1
x[183] 1
x[184] 0
x[185] 1
x[186] 0
x[187] 0
x[188] 0
x[189] 1
x[190] 0
x[191] 0
x[192] 0
x[193] 0
x[194] 1
x[195] 1
x[196] 0
x[197] 1
x[198] 0
x[199] 0
x[200] 1
x[201] 0
x[202] 1
x[203] 1
x[204] 0
x[205] 0
x[206] 0
x[207] 1
x[208] 0
x[209] 0
x[210] 1
x[211] 0
x[212] 1
x[213] 0
x[214] 1
x[215] 0
x[216] 1
x[217] 0
x[218] 1
x[219] 1
x[220] 0
x[221] 0
x[222] 0
x[223] 1
x[224] 0
x[225] 0
x[226] 0
x[227] 1
x[228] 1
x[229] 1
x[230] 0
x[231] 0
x[232] 0
x[233] 1
x[234] 0
x[235] 1
x[236] 0
x[237] 1
x[238] 1
x[239] 0
x[240] 1
x[241] 1
x[242] 0
x[243] 1
x[244] 0
x[245] 1
x[246] 0
x[247] 0
x[248] 1
x[249] 0
x[250] 0
x[251] 0
x[252] 0
x[253] 0
x[254] 0
x[255] 0
x[256] 0
x[257] 1
x[258] 1
x[259] 0
x[260] 1
x[261] 1
x[262] 0
x[263] 1
x[264] 0
x[265] 1
x[266] 1
x[267] 1
x[268] 0
x[269] 0
x[270] 0
x[271] 1
x[272] 1
x[273] 1
x[274] 0
x[275] 1
x[276] 0
x[277] 0
x[278] 0
x[279] 1
x[280] 0
x[281] 0
x[282] 1
x[283] 1
x[284] 0
x[285] 1
x[286] 1
x[287] 1
x[288] 1
x[289] 1
x[290] 0
x[291] 0
x[292] 0
x[293] 0
x[294] 1
x[295] 0
x[296] 0
x[297] 1
x[298] 1
x[299] 1
x[300] 0
x[301] 1
x[302] 1
x[303] 0
x[304] 0
x[305] 0
x[306] 1
x[307] 0
x[308] 0
x[309] 1
x[310] 1
x[311] 0
x[312] 0
x[313] 0
x[314] 1
x[315] 0
x[316] 0
x[317] 0
x[318] 0
x[319] 0
x[320] 1
x[321] 1
x[322] 0
x[323] 1
x[324] 0
x[325] 0
x[326] 0
x[327] 0
x[328] 0
x[329] 0
x[330] 0
x[331] 1
x[332] 1
x[333] 1
x[334] 1
x[335] 1
x[336] 1
x[337] 0
x[338] 1
x[339] 0
x[340] 1
x[341] 0
x[342] 1
x[343] 1
x[344] 1
x[345] 0
x[346] 0
x[347] 0
x[348] 1
x[349] 1
x[350] 1
x[351] 0
x[352] 0
x[353] 1
x[354] 1
x[355] 1
x[356] 1
x[357] 0
x[358] 0
x[359] 0
x[360] 1
x[361] 1
x[362] 1
x[363] 0
x[364] 0
x[365] 0
x[366] 1
x[367] 0
x[368] 1
x[369] 0
x[370] 0
x[371] 0
x[372] 0
x[373] 0
x[374] 1
x[375] 1
x[376] 0
x[377] 1
x[378] 0
x[379] 0
x[380] 1
x[381] 1
x[382] 0
x[383] 1
x[384] 0
x[385] 1
x[386] 0
x[387] 1
x[388] 0
x[389] 1
x[390] 1
x[391] 0
x[392] 1
x[393] 1
x[394] 1
x[395] 1
x[396] 1
x[397] 0
x[398] 1
x[399] 0
x[400] 0
x[401] 0
x[402] 0
x[403] 1
x[404] 0
x[405] 1
x[406] 0
x[407] 0
x[408] 1
x[409] 1
x[410] 1
x[411] 1
x[412] 0
x[413] 0
x[414] 0
x[415] 1
x[416] 1
x[417] 1
x[418] 0
x[419] 1
x[420] 0
x[421] 1
x[422] 1
x[423] 1
x[424] 1
x[425] 1
x[426] 0
x[427] 0
x[428] 0
x[429] 1
x[430] 1
x[431] 0
x[432] 0
x[433] 1
x[434] 0
x[435] 1
x[436] 0
x[437] 1
x[438] 0
x[439] 0
x[440] 0
x[441] 1
x[442] 0
x[443] 1
x[444] 0
x[445] 1
x[446] 0
x[447] 1
x[448] 1
x[449] 0
x[450] 0
x[451] 0
x[452] 1
x[453] 0
x[454] 0
x[455] 0
x[456] 0
x[457] 0
x[458] 1
x[459] 0
x[460] 1
x[461] 1
x[462] 0
x[463] 1
x[464] 1
x[465] 0
x[466] 1
x[467] 1
x[468] 1
x[469] 1
x[470] 0
x[471] 0
x[472] 1
x[473] 1
x[474] 1
x[475] 0
x[476] 0
x[477] 0
x[478] 0
x[479] 0
x[480] 0
x[481] 0
x[482] 0
x[483] 1
x[484] 0
x[485] 1
x[486] 0
x[487] 1
x[488] 1
x[489] 0
x[490] 1
x[491] 1
x[492] 0
x[493] 1
x[494] 0
x[495] 0
x[496] 1
x[497] 0
x[498] 1
x[499] 0
x[500] 1
x[501] 1
x[502] 0
x[503] 0
x[504] 1
x[505] 1
x[506] 1
x[507] 0
x[508] 0
x[509] 0
x[510] 0
x[511] 1
x[512] 0
x[513] 1
x[514] 1
x[515] 0
x[516] 0
x[517] 1
x[518] 0
x[519] 1
x[520] 1
x[521] 1
x[522] 0
x[523] 1
x[524] 1
x[525] 1
x[526] 0
x[527] 1
x[528] 1
x[529] 1
x[530] 1
x[531] 0
x[532] 1
x[533] 0
x[534] 0
x[535] 1
x[536] 0
x[537] 1
x[538] 0
x[539] 1
x[540] 0
x[541] 1
x[542] 1
x[543] 0
x[544] 0
x[545] 0
x[546] 1
x[547] 1
x[548] 1
x[549] 1
x[550] 1
x[551] 1
x[552] 0
x[553] 1
x[554] 0
x[555] 0
x[556] 1
x[557] 1
x[558] 0
x[559] 0
x[560] 0
x[561] 0
x[562] 1
x[563] 0
x[564] 0
x[565] 0
x[566] 0
x[567] 1
x[568] 1
x[569] 1
x[570] 1
x[571] 0
x[572] 0
x[573] 1
x[574] 0
x[575] 1
x[576] 1
x[577] 0
x[578] 1
x[579] 1
x[580] 0
x[581] 1
x[582] 1
x[583] 0
x[584] 1
x[585] 0
x[586] 0
x[587] 0
x[588] 1
x[589] 1
x[590] 0
x[591] 1
x[592] 0
x[593] 1
x[594] 1
x[595] 0
x[596] 1
x[597] 0
x[598] 1
x[599] 1
x[600] 0
x[601] 0
x[602] 1
x[603] 1
x[604] 0
x[605] 1
x[606] 1
x[607] 0
x[608] 0
x[609] 1
x[610] 0
x[611] 0
x[612] 1
x[613] 1
x[614] 1
x[615] 0
x[616] 1
x[617] 0
x[618] 1
x[619] 1
x[620] 0
x[621] 1
x[622] 1
x[623] 0
x[624] 0
x[625] 0
x[626] 1
x[627] 1
x[628] 0
x[629] 0
x[630] 1
x[631] 1
x[632] 0
x[633] 0
x[634] 0
x[635] 1
x[636] 0
x[637] 1
x[638] 0
x[639] 0
x[640] 0
x[641] 1
x[642] 1
x[643] 0
x[644] 0
x[645] 1
x[646] 0
x[647] 0
x[648] 0
x[649] 0
x[650] 0
x[651] 0
x[652] 0
x[653] 0
x[654] 1
x[655] 0
x[656] 0
x[657] 0
x[658] 1
x[659] 0
x[660] 1
x[661] 0
x[662] 1
x[663] 0
x[664] 1
x[665] 0
x[666] 0
x[667] 0
x[668] 0
x[669] 0
x[670] 1
x[671] 1
x[672] 1
x[673] 0
x[674] 1
x[675] 0
x[676] 1
x[677] 1
x[678] 1
x[679] 0
x[680] 0
x[681] 0
x[682] 1
x[683] 1
x[684] 1
x[685] 0
x[686] 1
x[687] 1
x[688] 1
x[689] 1
x[690] 0
x[691] 0
x[692] 0
x[693] 1
x[694] 1
x[695] 0
x[696] 0
x[697] 0
x[698] 0
x[699] 0
x[700] 0
x[701] 0
x[702] 0
x[703] 1
x[704] 0
x[705] 1
x[706] 1
x[707] 0
x[708] 0
x[709] 1
x[710] 1
x[711] 1
x[712] 0
x[713] 0
x[714] 0
x[715] 0
x[716] 0
x[717] 0
x[718] 0
x[719] 1
x[720] 0
x[721] 1
x[722] 0
x[723] 1
x[724] 0
x[725] 0
x[726] 0
x[727] 1
x[728] 0
x[729] 0
x[730] 0
x[731] 0
x[732] 0
x[733] 1
x[734] 1
x[735] 0
x[736] 1
x[737] 1
x[738] 0
x[739] 0
x[740] 0
x[741] 0
x[742] 1
x[743] 0
x[744] 1
x[745] 1
x[746] 1
x[747] 1
x[748] 0
x[749] 0
x[750] 1
x[751] 1
x[752] 0
x[753] 1
x[754] 1
x[755] 0
x[756] 0
x[757] 1
x[758] 1
x[759] 1
x[760] 1
x[761] 0
x[762] 0
x[763] 0
x[764] 1
x[765] 0
x[766] 0
x[767] 0
x[768] 0
x[769] 0
x[770] 0
x[771] 1
x[772] 0
x[773] 1
x[774] 0
x[775] 1
x[776] 0
x[777] 0
x[778] 1
x[779] 0
x[780] 1
x[781] 1
x[782] 1
x[783] 0
x[784] 1
x[785] 0
x[786] 0
x[787] 0
x[788] 1
x[789] 0
x[790] 1
x[791] 1
x[792] 0
x[793] 0
x[794] 1
x[795] 0
x[796] 1
x[797] 0
x[798] 1
x[799] 0
x[800] 1
x[801] 1
x[802] 0
x[803] 0
x[804] 0
x[805] 1
x[806] 1
x[807] 0
x[808] 1
x[809] 1
x[810] 1
x[811] 0
x[812] 0
x[813] 1
x[814] 1
x[815] 1
x[816] 0
x[817] 1
x[818] 1
x[819] 0
x[820] 0
x[821] 0
x[822] 0
x[823] 1
x[824] 0
x[825] 0
x[826] 0
x[827] 1
x[828] 1
x[829] 1
x[830] 1
x[831] 0
x[832] 0
x[833] 1
x[834] 1
x[835] 0
x[836] 1
x[837] 0
x[838] 1
x[839] 0
x[840] 0
x[841] 1
x[842] 1
x[843] 1
x[844] 0
x[845] 0
x[846] 1
x[847] 0
x[848] 0
x[849] 1
x[850] 0
x[851] 0
x[852] 1
x[853] 0
x[854] 0
x[855] 1
x[856] 0
x[857] 1
x[858] 1
x[859] 0
x[860] 0
x[861] 0
x[862] 0
x[863] 1
x[864] 1
x[865] 1
x[866] 1
x[867] 1
x[868] 0
x[869] 1
x[870] 1
x[871] 1
x[872] 1
x[873] 1
x[874] 0
x[875] 1
x[876] 0
x[877] 0
x[878] 1
x[879] 0
x[880] 0
x[881] 1
x[882] 1
x[883] 0
x[884] 1
x[885] 1
x[886] 1
x[887] 1
x[888] 0
x[889] 1
x[890] 0
x[891] 1
x[892] 1
x[893] 1
x[894] 1
x[895] 0
x[896] 1
x[897] 0
x[898] 0
x[899] 1
x[900] 0
x[901] 1
x[902] 1
x[903] 0
x[904] 1
x[905] 0
x[906] 1
x[907] 1
x[908] 0
x[909] 0
x[910] 1
x[911] 0
x[912] 1
x[913] 1
x[914] 0
x[915] 0
x[916] 0
x[917] 1
x[918] 1
x[919] 0
x[920] 0
x[921] 0
x[922] 1
x[923] 0
x[924] 0
x[925] 1
x[926] 1
x[927] 1
x[928] 0
x[929] 0
x[930] 1
x[931] 1
x[932] 0
x[933] 0
x[934] 0
x[935] 1
x[936] 1
x[937] 1
x[938] 0
x[939] 1
x[940] 1
x[941] 0
x[942] 1
x[943] 1
x[944] 1
x[945] 0
x[946] 1
x[947] 0
x[948] 0
x[949] 1
x[950] 1
x[951] 1
x[952] 0
x[953] 1
x[954] 1
x[955] 0
x[956] 0
x[957] 1
x[958] 0
x[959] 1
x[960] 0
x[961] 0
x[962] 0
x[963] 1
x[964] 0
x[965] 0
x[966] 0
x[967] 1
x[968] 0
x[969] 0
x[970] 0
x[971] 1
x[972] 1
x[973] 0
x[974] 0
x[975] 0
x[976] 0
x[977] 1
x[978] 1
x[979] 0
x[980] 1
x[981] 1
x[982] 0
x[983] 1
x[984] 1
x[985] 1
x[986] 1
x[987] 1
x[988] 0
x[989] 0
x[990] 1
x[991] 0
x[992] 0
x[993] 1
x[994] 0
x[995] 1
x[996] 0
x[997] 1
x[998] 1
x[999] 1
